Route #1: 12 20 52
Route #2: 59 3 4 72 103
Route #3: 102 87 149 141 29 99 92 150 28 60 86 9 40 139
Route #4: 105 110 14 145 113 109 123 136 79 24 80 61 78 107 34
Route #5: 84 26 6
Route #6: 53 104 64 82 69 58 2 138 68
Route #7: 74 88 41 39 144 66 89 1 23 47
Route #8: 130 90 8 83
Route #9: 143 112 108 46 133 19 152 55 93 146
Route #10: 33 63 37 73 142 54 44 135 81 127 18 114 76 48 77 128
Route #11: 71 7 11
Route #12: 21
Route #13: 147 65 131 111 15 5 125 106 35 67 32 30 49 129
Route #14: 124 115 75 38 17 25 95
Route #15: 121 116 31 126 122 51 10
Route #16: 117 45 148 98 50 85 97 118 151 43 56 132 96 22 137 100 70 91 119 140 94 134
Route #17: 16 36 57 42 13 27 62 101 120
Cost 17231.000000